; DUP2 SWAP1 DUP2 SWAP1 DUP2 SWAP1 => DUP2 DUP3 DUP4 SWAP3
(set-option :produce-proofs true)
; 
(set-info :status unknown)
(declare-fun storage_t ((_ BitVec 256) (_ BitVec 256) Int (_ BitVec 256)) (_ BitVec 256))
(declare-fun storage_s ((_ BitVec 256) (_ BitVec 256) Int (_ BitVec 256)) (_ BitVec 256))
(declare-fun exc_halt_t (Int) Bool)
(declare-fun exc_halt_s (Int) Bool)
(declare-fun sc_t (Int) (_ BitVec 6))
(declare-fun stack_t ((_ BitVec 256) (_ BitVec 256) Int (_ BitVec 6)) (_ BitVec 256))
(declare-fun stack_s ((_ BitVec 256) (_ BitVec 256) Int (_ BitVec 6)) (_ BitVec 256))
(declare-fun sc_s (Int) (_ BitVec 6))
(declare-fun used_gas_t ((_ BitVec 256) (_ BitVec 256) Int) Int)
(declare-fun used_gas_s ((_ BitVec 256) (_ BitVec 256) Int) Int)
(assert
 (exists ((x_0 (_ BitVec 256)) (x_1 (_ BitVec 256)) )(let (($x4580 (forall ((w (_ BitVec 256)) )(let ((?x9050 (storage_t x_0 x_1 4 w)))
 (let ((?x10812 (storage_s x_0 x_1 6 w)))
 (= ?x10812 ?x9050))))
 ))
 (let (($x3723 (exc_halt_t 4)))
 (let (($x772 (exc_halt_s 6)))
 (let (($x10342 (= $x772 $x3723)))
 (let (($x2394 (forall ((n (_ BitVec 6)) )(let ((?x5855 (stack_t x_0 x_1 4 n)))
 (let ((?x9243 (stack_s x_0 x_1 6 n)))
 (let (($x6418 (= ?x9243 ?x5855)))
 (or $x6418 (bvsle (sc_t 4) n))))))
 ))
 (let ((?x3757 (sc_t 4)))
 (let ((?x926 (sc_s 6)))
 (let (($x11286 (= ?x926 ?x3757)))
 (let ((?x9098 (used_gas_t x_0 x_1 0)))
 (let ((?x4164 (used_gas_s x_0 x_1 0)))
 (let (($x5786 (= ?x4164 ?x9098)))
 (let (($x8240 (forall ((w (_ BitVec 256)) )(let ((?x4845 (storage_t x_0 x_1 0 w)))
 (let ((?x8680 (storage_s x_0 x_1 0 w)))
 (= ?x8680 ?x4845))))
 ))
 (let (($x56 (exc_halt_t 0)))
 (let (($x57 (exc_halt_s 0)))
 (let (($x58 (= $x57 $x56)))
 (let (($x10850 (forall ((n (_ BitVec 6)) )(let ((?x10600 (stack_t x_0 x_1 0 n)))
 (let ((?x1080 (stack_s x_0 x_1 0 n)))
 (let (($x6607 (= ?x1080 ?x10600)))
 (let ((?x63 (sc_t 0)))
 (let (($x5025 (bvsle ?x63 n)))
 (or $x5025 $x6607)))))))
 ))
 (let ((?x63 (sc_t 0)))
 (let ((?x72 (sc_s 0)))
 (let (($x73 (= ?x72 ?x63)))
 (let (($x8020 (= $x3723 (or (exc_halt_t 3) (not (bvsle (_ bv0 6) (bvadd (_ bv60 6) (sc_t 3))))))))
 (let (($x9930 (forall ((w (_ BitVec 256)) )(let ((?x9825 (storage_t x_0 x_1 3 w)))
 (let ((?x9050 (storage_t x_0 x_1 4 w)))
 (= ?x9050 ?x9825))))
 ))
 (let (($x1370 (forall ((n (_ BitVec 6)) )(or (= (stack_t x_0 x_1 4 n) (stack_t x_0 x_1 3 n)) (bvsle (bvadd (_ bv60 6) (sc_t 3)) n)))
 ))
 (let (($x4001 (= (used_gas_t x_0 x_1 4) (+ 3 (used_gas_t x_0 x_1 3)))))
 (let (($x7217 (= (stack_t x_0 x_1 4 (bvadd (_ bv62 6) ?x3757)) (stack_t x_0 x_1 3 (bvadd (_ bv62 6) (sc_t 3))))))
 (let (($x1594 (= (stack_t x_0 x_1 4 (bvadd (_ bv61 6) ?x3757)) (stack_t x_0 x_1 3 (bvadd (_ bv61 6) (sc_t 3))))))
 (let ((?x7364 (stack_t x_0 x_1 3 (bvadd (_ bv63 6) (sc_t 3)))))
 (let (($x1697 (= (stack_t x_0 x_1 4 (bvadd (_ bv63 6) ?x3757)) (stack_t x_0 x_1 3 (bvadd (_ bv60 6) (sc_t 3))))))
 (let (($x5252 (exc_halt_t 2)))
 (let (($x10337 (or (not (bvsle (_ bv0 6) (bvadd (_ bv60 6) (sc_t 2)))) (not (= ((_ extract 6 6) (bvadd (_ bv1 7) (concat (_ bv0 1) (sc_t 2)))) (_ bv0 1))) $x5252)))
 (let (($x1097 (exc_halt_t 3)))
 (let (($x462 (forall ((w (_ BitVec 256)) )(let ((?x1396 (storage_t x_0 x_1 2 w)))
 (let ((?x9825 (storage_t x_0 x_1 3 w)))
 (= ?x9825 ?x1396))))
 ))
 (let (($x2816 (forall ((n (_ BitVec 6)) )(or (bvsle (bvadd (_ bv60 6) (sc_t 2)) n) (= (stack_t x_0 x_1 3 n) (stack_t x_0 x_1 2 n))))
 ))
 (let ((?x1547 (used_gas_t x_0 x_1 3)))
 (let ((?x2714 (sc_t 2)))
 (let ((?x270 (bvadd (_ bv63 6) ?x2714)))
 (let ((?x2575 (stack_t x_0 x_1 2 ?x270)))
 (let (($x2611 (= (stack_t x_0 x_1 3 (bvadd (_ bv62 6) ?x2714)) (stack_t x_0 x_1 2 (bvadd (_ bv62 6) ?x2714)))))
 (let (($x5066 (= (stack_t x_0 x_1 3 (bvadd (_ bv61 6) ?x2714)) (stack_t x_0 x_1 2 (bvadd (_ bv61 6) ?x2714)))))
 (let ((?x10824 (bvadd (_ bv60 6) ?x2714)))
 (let ((?x4360 (stack_t x_0 x_1 2 ?x10824)))
 (let (($x11099 (not (= ((_ extract 6 6) (bvadd (_ bv1 7) (concat (_ bv0 1) (sc_t 1)))) (_ bv0 1)))))
 (let (($x3120 (exc_halt_t 1)))
 (let (($x7631 (forall ((w (_ BitVec 256)) )(let ((?x5698 (storage_t x_0 x_1 1 w)))
 (let ((?x1396 (storage_t x_0 x_1 2 w)))
 (= ?x1396 ?x5698))))
 ))
 (let (($x2034 (forall ((n (_ BitVec 6)) )(or (= (stack_t x_0 x_1 2 n) (stack_t x_0 x_1 1 n)) (bvsle (bvadd (_ bv61 6) (sc_t 1)) n)))
 ))
 (let (($x2185 (= ?x2714 (bvadd (_ bv1 6) (sc_t 1)))))
 (let ((?x3149 (used_gas_t x_0 x_1 2)))
 (let ((?x6052 (sc_t 1)))
 (let ((?x5428 (bvadd (_ bv63 6) ?x6052)))
 (let ((?x10567 (stack_t x_0 x_1 1 ?x5428)))
 (let (($x5973 (= (stack_t x_0 x_1 2 (bvadd (_ bv62 6) ?x6052)) (stack_t x_0 x_1 1 (bvadd (_ bv62 6) ?x6052)))))
 (let ((?x8956 (bvadd (_ bv61 6) ?x6052)))
 (let ((?x5206 (stack_t x_0 x_1 1 ?x8956)))
 (let (($x6067 (not (= ((_ extract 6 6) (bvadd (_ bv1 7) (concat (_ bv0 1) ?x63))) (_ bv0 1)))))
 (let (($x11025 (forall ((w (_ BitVec 256)) )(let ((?x4845 (storage_t x_0 x_1 0 w)))
 (let ((?x5698 (storage_t x_0 x_1 1 w)))
 (= ?x5698 ?x4845))))
 ))
 (let (($x1888 (forall ((n (_ BitVec 6)) )(or (= (stack_t x_0 x_1 1 n) (stack_t x_0 x_1 0 n)) (bvsle (bvadd (_ bv62 6) (sc_t 0)) n)))
 ))
 (let (($x4139 (= ?x6052 (bvadd (_ bv1 6) ?x63))))
 (let (($x634 (= (stack_t x_0 x_1 1 (bvadd (_ bv63 6) ?x63)) (stack_t x_0 x_1 0 (bvadd (_ bv63 6) ?x63)))))
 (let ((?x149 (bvadd (_ bv62 6) ?x63)))
 (let ((?x4655 (stack_t x_0 x_1 0 ?x149)))
 (let (($x1208 (= $x772 (or (exc_halt_s 5) (not (bvsle (_ bv0 6) (bvadd (_ bv62 6) (sc_s 5))))))))
 (let (($x10642 (forall ((w (_ BitVec 256)) )(let ((?x6541 (storage_s x_0 x_1 5 w)))
 (let ((?x10812 (storage_s x_0 x_1 6 w)))
 (= ?x10812 ?x6541))))
 ))
 (let (($x8894 (forall ((n (_ BitVec 6)) )(or (bvsle (bvadd (_ bv62 6) (sc_s 5)) n) (= (stack_s x_0 x_1 6 n) (stack_s x_0 x_1 5 n))))
 ))
 (let (($x10097 (= (used_gas_s x_0 x_1 6) (+ 3 (used_gas_s x_0 x_1 5)))))
 (let ((?x3338 (stack_s x_0 x_1 5 (bvadd (_ bv63 6) (sc_s 5)))))
 (let (($x8454 (= (stack_s x_0 x_1 6 (bvadd (_ bv63 6) ?x926)) (stack_s x_0 x_1 5 (bvadd (_ bv62 6) (sc_s 5))))))
 (let (($x7172 (exc_halt_s 4)))
 (let (($x5265 (or (not (= ((_ extract 6 6) (bvadd (_ bv1 7) (concat (_ bv0 1) (sc_s 4)))) (_ bv0 1))) $x7172 (not (bvsle (_ bv0 6) (bvadd (_ bv62 6) (sc_s 4)))))))
 (let (($x3979 (exc_halt_s 5)))
 (let (($x11116 (forall ((w (_ BitVec 256)) )(let ((?x10268 (storage_s x_0 x_1 4 w)))
 (let ((?x6541 (storage_s x_0 x_1 5 w)))
 (= ?x6541 ?x10268))))
 ))
 (let (($x5722 (forall ((n (_ BitVec 6)) )(or (bvsle (bvadd (_ bv62 6) (sc_s 4)) n) (= (stack_s x_0 x_1 5 n) (stack_s x_0 x_1 4 n))))
 ))
 (let ((?x9799 (used_gas_s x_0 x_1 5)))
 (let ((?x4305 (sc_s 4)))
 (let ((?x1110 (bvadd (_ bv63 6) ?x4305)))
 (let ((?x3460 (stack_s x_0 x_1 4 ?x1110)))
 (let ((?x5391 (bvadd (_ bv62 6) ?x4305)))
 (let ((?x10701 (stack_s x_0 x_1 4 ?x5391)))
 (let (($x8182 (= $x7172 (or (exc_halt_s 3) (not (bvsle (_ bv0 6) (bvadd (_ bv62 6) (sc_s 3))))))))
 (let (($x1387 (forall ((w (_ BitVec 256)) )(let ((?x1088 (storage_s x_0 x_1 3 w)))
 (let ((?x10268 (storage_s x_0 x_1 4 w)))
 (= ?x10268 ?x1088))))
 ))
 (let (($x1647 (forall ((n (_ BitVec 6)) )(or (bvsle (bvadd (_ bv62 6) (sc_s 3)) n) (= (stack_s x_0 x_1 4 n) (stack_s x_0 x_1 3 n))))
 ))
 (let ((?x11305 (used_gas_s x_0 x_1 4)))
 (let (($x8482 (not (= ((_ extract 6 6) (bvadd (_ bv1 7) (concat (_ bv0 1) (sc_s 2)))) (_ bv0 1)))))
 (let (($x247 (exc_halt_s 2)))
 (let (($x292 (exc_halt_s 3)))
 (let (($x10423 (forall ((w (_ BitVec 256)) )(let ((?x5347 (storage_s x_0 x_1 2 w)))
 (let ((?x1088 (storage_s x_0 x_1 3 w)))
 (= ?x1088 ?x5347))))
 ))
 (let (($x615 (forall ((n (_ BitVec 6)) )(or (= (stack_s x_0 x_1 3 n) (stack_s x_0 x_1 2 n)) (bvsle (bvadd (_ bv62 6) (sc_s 2)) n)))
 ))
 (let ((?x275 (sc_s 3)))
 (let (($x2652 (= ?x275 (bvadd (_ bv1 6) (sc_s 2)))))
 (let ((?x4963 (used_gas_s x_0 x_1 3)))
 (let ((?x218 (sc_s 2)))
 (let ((?x5148 (bvadd (_ bv63 6) ?x218)))
 (let ((?x7849 (stack_s x_0 x_1 2 ?x5148)))
 (let ((?x7367 (bvadd (_ bv62 6) ?x218)))
 (let ((?x2562 (stack_s x_0 x_1 2 ?x7367)))
 (let (($x3125 (= $x247 (or (exc_halt_s 1) (not (bvsle (_ bv0 6) (bvadd (_ bv62 6) (sc_s 1))))))))
 (let (($x261 (forall ((w (_ BitVec 256)) )(let ((?x8762 (storage_s x_0 x_1 1 w)))
 (let ((?x5347 (storage_s x_0 x_1 2 w)))
 (= ?x5347 ?x8762))))
 ))
 (let (($x1727 (forall ((n (_ BitVec 6)) )(let ((?x154 (sc_s 1)))
 (let ((?x7504 (bvadd (_ bv62 6) ?x154)))
 (let (($x10307 (bvsle ?x7504 n)))
 (or $x10307 (= (stack_s x_0 x_1 2 n) (stack_s x_0 x_1 1 n)))))))
 ))
 (let ((?x1830 (used_gas_s x_0 x_1 2)))
 (let (($x2693 (not (= ((_ extract 6 6) (bvadd (_ bv1 7) (concat (_ bv0 1) ?x72))) (_ bv0 1)))))
 (let (($x189 (exc_halt_s 1)))
 (let (($x5562 (forall ((w (_ BitVec 256)) )(let ((?x8680 (storage_s x_0 x_1 0 w)))
 (let ((?x8762 (storage_s x_0 x_1 1 w)))
 (= ?x8762 ?x8680))))
 ))
 (let (($x8990 (forall ((n (_ BitVec 6)) )(or (= (stack_s x_0 x_1 1 n) (stack_s x_0 x_1 0 n)) (bvsle (bvadd (_ bv62 6) (sc_s 0)) n)))
 ))
 (let ((?x154 (sc_s 1)))
 (let (($x7749 (= ?x154 (bvadd (_ bv1 6) ?x72))))
 (let (($x9587 (= (stack_s x_0 x_1 1 (bvadd (_ bv63 6) ?x72)) (stack_s x_0 x_1 0 (bvadd (_ bv63 6) ?x72)))))
 (let ((?x2590 (bvadd (_ bv62 6) ?x72)))
 (let ((?x8456 (stack_s x_0 x_1 0 ?x2590)))
 (let (($x468 (forall ((w (_ BitVec 256)) )(let ((?x8680 (storage_s x_0 x_1 0 w)))
 (= ?x8680 (_ bv0 256))))
 ))
 (let (($x579 (= ?x4164 0)))
 (let (($x5167 (not $x57)))
 (let (($x10798 (= (stack_s x_0 x_1 0 (_ bv1 6)) x_1)))
 (let (($x8174 (= (stack_s x_0 x_1 0 (_ bv0 6)) x_0)))
 (let (($x1660 (= ?x72 (_ bv2 6))))
 (and $x1660 $x8174 $x10798 $x5167 $x579 $x468 (= (stack_s x_0 x_1 1 (bvadd (_ bv63 6) ?x154)) ?x8456) (= (stack_s x_0 x_1 1 ?x2590) ?x8456) $x9587 (= (used_gas_s x_0 x_1 1) (+ 3 ?x4164)) $x7749 $x8990 $x5562 (= $x189 (or $x57 $x2693 (not (bvsle (_ bv0 6) ?x2590)))) (= ?x7849 (stack_s x_0 x_1 1 (bvadd (_ bv62 6) ?x154))) (= ?x2562 (stack_s x_0 x_1 1 (bvadd (_ bv63 6) ?x154))) (= ?x1830 (+ 3 (used_gas_s x_0 x_1 1))) (= ?x218 ?x154) $x1727 $x261 $x3125 (= (stack_s x_0 x_1 3 (bvadd (_ bv63 6) ?x275)) ?x2562) (= (stack_s x_0 x_1 3 ?x7367) ?x2562) (= (stack_s x_0 x_1 3 ?x5148) ?x7849) (= ?x4963 (+ 3 ?x1830)) $x2652 $x615 $x10423 (= $x292 (or $x247 (not (bvsle (_ bv0 6) ?x7367)) $x8482)) (= ?x3460 (stack_s x_0 x_1 3 (bvadd (_ bv62 6) ?x275))) (= ?x10701 (stack_s x_0 x_1 3 (bvadd (_ bv63 6) ?x275))) (= ?x11305 (+ 3 ?x4963)) (= ?x4305 ?x275) $x1647 $x1387 $x8182 (= ?x3338 ?x10701) (= (stack_s x_0 x_1 5 ?x5391) ?x10701) (= (stack_s x_0 x_1 5 ?x1110) ?x3460) (= ?x9799 (+ 3 ?x11305)) (= (sc_s 5) (bvadd (_ bv1 6) ?x4305)) $x5722 $x11116 (= $x3979 $x5265) $x8454 (= (stack_s x_0 x_1 6 (bvadd (_ bv62 6) ?x926)) ?x3338) $x10097 (= ?x926 (sc_s 5)) $x8894 $x10642 $x1208 (= ?x10567 ?x4655) (= (stack_t x_0 x_1 1 ?x149) ?x4655) $x634 (= (used_gas_t x_0 x_1 1) (+ 3 ?x9098)) $x4139 $x1888 $x11025 (= $x3120 (or $x56 $x6067 (not (bvsle (_ bv0 6) ?x149)))) (= ?x2575 ?x5206) (= (stack_t x_0 x_1 2 ?x8956) ?x5206) $x5973 (= (stack_t x_0 x_1 2 ?x5428) ?x10567) (= ?x3149 (+ 3 (used_gas_t x_0 x_1 1))) $x2185 $x2034 $x7631 (= $x5252 (or (not (bvsle (_ bv0 6) ?x8956)) $x3120 $x11099)) (= ?x7364 ?x4360) (= (stack_t x_0 x_1 3 ?x10824) ?x4360) $x5066 $x2611 (= (stack_t x_0 x_1 3 ?x270) ?x2575) (= ?x1547 (+ 3 ?x3149)) (= (sc_t 3) (bvadd (_ bv1 6) ?x2714)) $x2816 $x462 (= $x1097 $x10337) $x1697 (= (stack_t x_0 x_1 4 (bvadd (_ bv60 6) ?x3757)) ?x7364) $x1594 $x7217 $x4001 (= ?x3757 (sc_t 3)) $x1370 $x9930 $x8020 $x73 $x10850 $x58 $x8240 $x5786 (not (and $x11286 $x2394 $x10342 $x4580))))))))))))))))))))))))))))))))))))))))))))))))))))))))))))))))))))))))))))))))))))))))))))))))))))))))))))))))))))
 )
(check-sat)
(get-proof)
